(declare-const delta_mem_22 Int)
(declare-const delta_mem_22@pos Int)
(declare-const delta_j Int)
(declare-const delta_x Int)
(declare-const delta_y Int)
(declare-const delta_mem_22@width Int)
(assert (exists
         ((|mem_22@width'?1| Int) (|mem_22@pos'?2| Int) (|mem_22'?3| Int)
            (|j'?4| Int) (tr?5 Int) (tr?6 Int) (tr?7 Int) (tr?8 Int)
            (tr?9 Int) (tr?10 Int) (phi_mem_22@width?11 Int)
            (phi_mem_22@pos?12 Int) (phi_mem_22?13 Int) (tr?14 Int)
            (tr?15 Int) (tr?16 Int) (|y'?17| Int) (|x'?18| Int)
            (mem_22?19 Int) (mem_22@pos?20 Int) (mem_22@width?21 Int)
            (y?22 Int) (x?23 Int) (j?24 Int) (edgecount?25 Int))
         (and (<= (- j?24) 0) (<= (- edgecount?25) 0)
                (<= (+ (- edgecount?25) j?24 1) 0)
                (or (and (<= (+ (- tr?14) (- tr?15) tr?16) 0)
                           (= (+ (- phi_mem_22?13) mem_22?19) 0)
                           (= (+ (- phi_mem_22@pos?12) mem_22@pos?20) 0)
                           (= (+ (- phi_mem_22@width?11) mem_22@width?21) 0))
                      (and (<= (+ (- tr?8) tr?9 tr?10 1) 0)
                             (= (+ (* 4 tr?6) tr?7 (- phi_mem_22?13)) 0)
                             (= (+ (* 4 tr?6) (- phi_mem_22@pos?12)) 0)
                             (= (+ (- phi_mem_22@width?11) 1) 0)))
                (= (+ |mem_22@width'?1| (- phi_mem_22@width?11)) 0)
                (= (+ |mem_22@pos'?2| (- phi_mem_22@pos?12)) 0)
                (= (+ |mem_22'?3| (- phi_mem_22?13)) 0)
                (= (+ |j'?4| (- j?24) -1) 0) (= (+ (- tr?5) |y'?17|) 0)
                (= (+ |x'?18| (- tr?6)) 0) (= delta_x (+ |x'?18| (- x?23)))
                (= delta_y (+ |y'?17| (- y?22)))
                (= delta_j (+ |j'?4| (- j?24)))
                (= delta_mem_22 (+ |mem_22'?3| (- mem_22?19)))
                (= delta_mem_22@pos (+ |mem_22@pos'?2| (- mem_22@pos?20)))
                (= delta_mem_22@width (+ |mem_22@width'?1|
                                           (- mem_22@width?21))))))
(check-sat)
